(set-info :source |printed by MathSAT|)

0 (4) @37:
(assert true)

4 (18,17,16,15,14,12,11,9,8,7,6,5) @53:
(assert true)

18 () @513:
(assert true)

17 () @514:
(assert true)

16 () @515:
(assert true)

15 () @516:
(assert true)

14 () @517:
(assert true)

12 () @518:
(assert true)

11 () @53:
(assert true)

9 () @519:
(assert true)

8 () @520:
(assert true)

7 () @521:
(assert true)

6 () @522:
(assert true)

5 () @523:
(assert true)

